0 7833255
325 7585540
650 7496627
975 7422424
1300 7381894
1625 7351567
1950 7311666
2275 7291036
2600 7268767
2925 7211008
3250 7197147
3575 7183935
3900 7175797
4225 7168646
4550 7163209
4875 7153979
5200 7149613
5525 7147065
5850 7146037
6175 7145393
6500 7145260
6825 7145248
7150 7145167
